letting n =  10
letting blocks =  [[1, 4], [1, 5], [1, 7], [1, 10], [2, 1], [2, 2], [2, 3], [2, 8], [2, 9], [2, 10], [3, 1], [3, 3], [3, 5], [3, 7], [3, 8], [3, 9], [4, 2], [4, 5], [4, 6], [4, 7], [4, 9], [4, 10], [5, 1], [5, 2], [5, 3], [5, 5], [5, 7], [5, 9], [6, 2], [6, 3], [6, 4], [6, 8], [6, 10], [7, 1], [7, 3], [7, 4], [7, 5], [7, 8], [7, 9], [8, 2], [8, 5], [8, 6], [8, 7], [8, 8], [8, 10], [9, 1], [9, 2], [9, 3], [9, 6], [9, 8], [9, 9], [10, 1], [10, 4], [10, 6], [10, 7], [10, 10]]
